Cu
 1.0000000000000000
    10.2106219203337467    0.0000000000000000    0.0000000000000000
     0.0000000000000000    8.8426579714472719    0.0000000000000000
     0.0000000000000000    0.0000000000000000   24.2527034153236478
 Cu 
  64
Selective dynamics
Direct
  0.0000000000000000  0.0000000000000000  0.3710926508223206   F   F   F
  0.2500000000000000  0.0000000000000000  0.3710926508223206   F   F   F
  0.5000000000000000  0.0000000000000000  0.3710926508223206   F   F   F
  0.7500000000000000  0.0000000000000000  0.3710926508223206   F   F   F
  0.1250000000000000  0.2500000000000000  0.3710926508223206   F   F   F
  0.3750000000000000  0.2500000000000000  0.3710926508223206   F   F   F
  0.6250000000000000  0.2500000000000000  0.3710926508223206   F   F   F
  0.8749999999999999  0.2500000000000000  0.3710926508223206   F   F   F
  0.0000000000000000  0.5000000000000000  0.3710926508223206   F   F   F
  0.2500000000000000  0.5000000000000000  0.3710926508223206   F   F   F
  0.5000000000000000  0.5000000000000000  0.3710926508223206   F   F   F
  0.7500000000000000  0.5000000000000000  0.3710926508223206   F   F   F
  0.1250000000000000  0.7499999999999999  0.3710926508223206   F   F   F
  0.3750000000000000  0.7499999999999999  0.3710926508223206   F   F   F
  0.6250000000000000  0.7499999999999999  0.3710926508223206   F   F   F
  0.8749999999999999  0.7499999999999999  0.3710926508223206   F   F   F
  0.1250000000000000  0.0833333333333333  0.4570308836074402   F   F   F
  0.3750000000000000  0.0833333333333333  0.4570308836074402   F   F   F
  0.6250000000000000  0.0833333333333333  0.4570308836074402   F   F   F
  0.8749999999999999  0.0833333333333333  0.4570308836074402   F   F   F
  0.0000000000000000  0.3333333333333333  0.4570308836074402   F   F   F
  0.2500000000000000  0.3333333333333333  0.4570308836074402   F   F   F
  0.5000000000000000  0.3333333333333333  0.4570308836074402   F   F   F
  0.7500000000000000  0.3333333333333333  0.4570308836074402   F   F   F
  0.1250000000000000  0.5833333333333334  0.4570308836074402   F   F   F
  0.3750000000000000  0.5833333333333334  0.4570308836074402   F   F   F
  0.6250000000000000  0.5833333333333334  0.4570308836074402   F   F   F
  0.8749999999999999  0.5833333333333334  0.4570308836074402   F   F   F
  0.0000000000000000  0.8333333333333334  0.4570308836074402   F   F   F
  0.2500000000000000  0.8333333333333334  0.4570308836074402   F   F   F
  0.5000000000000000  0.8333333333333334  0.4570308836074402   F   F   F
  0.7500000000000000  0.8333333333333334  0.4570308836074402   F   F   F
  0.0000000000000000  0.1666666666666667  0.5429691163925597   T   T   T
  0.2500000000000000  0.1666666666666667  0.5429691163925597   T   T   T
  0.5000000000000000  0.1666666666666667  0.5429691163925597   T   T   T
  0.7500000000000000  0.1666666666666667  0.5429691163925597   T   T   T
  0.1250000000000000  0.4166666666666666  0.5429691163925597   T   T   T
  0.3750000000000000  0.4166666666666666  0.5429691163925597   T   T   T
  0.6250000000000000  0.4166666666666666  0.5429691163925597   T   T   T
  0.8749999999999999  0.4166666666666666  0.5429691163925597   T   T   T
  0.0000000000000000  0.6666666666666666  0.5429691163925597   T   T   T
  0.2500000000000000  0.6666666666666666  0.5429691163925597   T   T   T
  0.5000000000000000  0.6666666666666666  0.5429691163925597   T   T   T
  0.7500000000000000  0.6666666666666666  0.5429691163925597   T   T   T
  0.1250000000000000  0.9166666666666667  0.5429691163925597   T   T   T
  0.3750000000000000  0.9166666666666667  0.5429691163925597   T   T   T
  0.6250000000000000  0.9166666666666667  0.5429691163925597   T   T   T
  0.8749999999999999  0.9166666666666667  0.5429691163925597   T   T   T
  0.0000000000000000  0.0000000000000000  0.6289073491776794   T   T   T
  0.2500000000000000  0.0000000000000000  0.6289073491776794   T   T   T
  0.5000000000000000  0.0000000000000000  0.6289073491776794   T   T   T
  0.7500000000000000  0.0000000000000000  0.6289073491776794   T   T   T
  0.1250000000000000  0.2500000000000000  0.6289073491776794   T   T   T
  0.3750000000000000  0.2500000000000000  0.6289073491776794   T   T   T
  0.6250000000000000  0.2500000000000000  0.6289073491776794   T   T   T
  0.8749999999999999  0.2500000000000000  0.6289073491776794   T   T   T
  0.0000000000000000  0.5000000000000000  0.6289073491776794   T   T   T
  0.2500000000000000  0.5000000000000000  0.6289073491776794   T   T   T
  0.5000000000000000  0.5000000000000000  0.6289073491776794   T   T   T
  0.7500000000000000  0.5000000000000000  0.6289073491776794   T   T   T
  0.1250000000000000  0.7499999999999999  0.6289073491776794   T   T   T
  0.3750000000000000  0.7499999999999999  0.6289073491776794   T   T   T
  0.6250000000000000  0.7499999999999999  0.6289073491776794   T   T   T
  0.8749999999999999  0.7499999999999999  0.6289073491776794   T   T   T
